p edge 64 512
e 1 45
e 1 14
e 1 63
e 1 17
e 1 33
e 1 61
e 1 3
e 1 41
e 1 7
e 1 29
e 1 23
e 1 18
e 1 9
e 1 50
e 1 21
e 1 64
e 1 20
e 2 61
e 2 27
e 2 49
e 2 23
e 2 22
e 2 31
e 2 47
e 2 28
e 3 43
e 3 56
e 3 19
e 3 42
e 3 59
e 3 7
e 3 11
e 3 37
e 3 28
e 3 35
e 3 46
e 3 22
e 3 55
e 3 15
e 3 41
e 3 10
e 3 12
e 3 49
e 4 32
e 4 43
e 4 63
e 4 14
e 4 7
e 4 48
e 4 9
e 4 16
e 4 44
e 4 39
e 4 19
e 4 21
e 4 6
e 4 28
e 4 26
e 4 41
e 4 56
e 5 59
e 5 16
e 5 40
e 5 15
e 5 19
e 5 53
e 5 38
e 5 6
e 5 50
e 5 63
e 5 8
e 5 47
e 5 9
e 5 18
e 5 33
e 5 25
e 5 37
e 5 30
e 5 57
e 6 11
e 6 58
e 6 48
e 6 52
e 6 24
e 6 51
e 6 28
e 6 63
e 6 39
e 6 9
e 6 40
e 6 43
e 7 48
e 7 34
e 7 64
e 7 60
e 7 15
e 7 49
e 7 17
e 7 18
e 7 21
e 7 56
e 7 28
e 7 57
e 7 63
e 8 27
e 8 31
e 8 58
e 8 42
e 8 33
e 8 50
e 8 61
e 8 30
e 8 21
e 8 26
e 8 24
e 8 64
e 8 53
e 8 12
e 8 55
e 9 62
e 9 32
e 9 28
e 9 16
e 9 64
e 9 26
e 9 49
e 9 10
e 9 42
e 9 55
e 9 59
e 9 56
e 9 23
e 9 30
e 9 11
e 10 14
e 10 27
e 10 64
e 10 24
e 10 22
e 10 59
e 10 25
e 10 60
e 10 23
e 10 58
e 10 16
e 10 61
e 10 15
e 10 49
e 10 44
e 10 50
e 10 31
e 11 43
e 11 54
e 11 19
e 11 38
e 11 59
e 11 63
e 11 32
e 11 48
e 11 24
e 11 13
e 11 61
e 11 28
e 11 25
e 11 55
e 11 15
e 12 18
e 12 52
e 12 53
e 12 60
e 12 27
e 12 44
e 12 33
e 12 28
e 12 31
e 12 17
e 12 22
e 12 19
e 12 34
e 13 24
e 13 38
e 13 47
e 13 58
e 13 39
e 13 40
e 13 43
e 13 28
e 13 33
e 13 56
e 13 53
e 13 16
e 13 31
e 13 35
e 14 16
e 14 61
e 14 47
e 14 45
e 14 22
e 14 53
e 14 30
e 14 32
e 14 43
e 15 47
e 15 37
e 15 30
e 15 29
e 15 19
e 15 40
e 15 46
e 15 50
e 15 17
e 15 24
e 15 64
e 15 16
e 16 22
e 16 57
e 16 31
e 16 51
e 16 42
e 16 17
e 16 26
e 16 56
e 16 41
e 16 38
e 16 47
e 16 43
e 16 37
e 16 62
e 16 44
e 17 27
e 17 37
e 17 46
e 17 21
e 17 35
e 17 29
e 17 55
e 17 28
e 17 34
e 18 33
e 18 53
e 18 43
e 18 45
e 18 41
e 18 39
e 18 29
e 18 50
e 18 57
e 18 20
e 18 40
e 18 48
e 18 44
e 19 23
e 19 36
e 19 34
e 19 25
e 19 52
e 19 54
e 19 64
e 19 31
e 19 24
e 20 57
e 20 23
e 20 54
e 20 60
e 20 33
e 20 21
e 20 53
e 20 45
e 20 56
e 20 28
e 20 48
e 21 29
e 21 36
e 21 46
e 21 63
e 21 55
e 21 22
e 21 28
e 21 62
e 21 27
e 21 43
e 21 25
e 22 62
e 22 59
e 22 38
e 22 30
e 22 53
e 22 49
e 22 54
e 22 56
e 22 27
e 22 44
e 22 29
e 22 42
e 22 36
e 23 61
e 23 59
e 23 26
e 23 47
e 23 48
e 23 40
e 23 57
e 23 63
e 23 43
e 23 50
e 23 51
e 24 47
e 24 40
e 24 43
e 24 51
e 24 60
e 24 27
e 24 38
e 24 44
e 24 32
e 24 39
e 24 48
e 25 53
e 25 45
e 25 57
e 25 27
e 25 48
e 25 58
e 25 49
e 25 55
e 25 54
e 25 60
e 25 42
e 25 41
e 25 52
e 26 49
e 26 48
e 26 61
e 26 41
e 26 43
e 26 58
e 26 50
e 26 35
e 27 29
e 27 31
e 27 62
e 27 48
e 27 32
e 27 59
e 27 55
e 27 37
e 27 56
e 27 28
e 27 49
e 27 63
e 28 41
e 28 49
e 28 37
e 28 46
e 28 54
e 28 31
e 28 33
e 28 51
e 29 30
e 29 42
e 29 47
e 29 55
e 29 37
e 29 45
e 29 56
e 29 38
e 29 31
e 30 55
e 30 50
e 30 56
e 30 33
e 30 49
e 30 48
e 30 60
e 30 54
e 30 37
e 30 46
e 30 59
e 31 37
e 31 59
e 31 42
e 31 41
e 31 64
e 31 35
e 31 52
e 31 50
e 31 51
e 31 33
e 31 44
e 32 59
e 32 48
e 32 62
e 32 63
e 32 57
e 32 42
e 32 34
e 32 54
e 33 39
e 33 35
e 33 46
e 33 38
e 33 62
e 33 57
e 33 51
e 34 52
e 34 44
e 34 54
e 34 46
e 34 40
e 34 41
e 34 37
e 35 58
e 35 41
e 35 64
e 35 45
e 36 58
e 36 45
e 36 55
e 36 39
e 37 56
e 37 50
e 37 62
e 38 39
e 38 49
e 38 59
e 38 51
e 38 43
e 38 48
e 39 62
e 39 50
e 39 63
e 39 43
e 39 55
e 39 53
e 39 54
e 40 55
e 40 53
e 40 57
e 40 41
e 40 43
e 40 48
e 40 46
e 40 51
e 41 52
e 41 51
e 41 53
e 41 63
e 42 61
e 42 43
e 42 46
e 42 48
e 42 56
e 42 54
e 42 51
e 43 64
e 43 56
e 43 60
e 43 45
e 43 58
e 43 49
e 44 47
e 44 50
e 45 57
e 45 63
e 45 58
e 45 46
e 46 61
e 46 55
e 46 63
e 46 54
e 46 58
e 46 49
e 47 63
e 47 59
e 47 57
e 47 61
e 48 61
e 48 57
e 49 53
e 49 56
e 49 58
e 49 54
e 50 56
e 50 63
e 50 64
e 50 58
e 50 52
e 50 57
e 50 55
e 51 57
e 51 53
e 51 55
e 51 59
e 52 62
e 52 61
e 53 56
e 53 62
e 53 57
e 53 64
e 53 60
e 54 64
e 54 61
e 54 59
e 54 57
e 56 60
e 56 64
e 57 58
e 58 60
e 59 61
e 60 64
e 61 63
e 61 62
